(set-logic ALL)
(declare-const limit_VAR Int)
(assert (< 3 limit_VAR))
(assert (< 5 limit_VAR))
(assert (not (< 7 limit_VAR)))
(assert (< 3 limit_VAR))
(assert (not (< 9 limit_VAR)))
(assert (< 5 limit_VAR))
(assert (not (< 25 limit_VAR)))
(assert (not (< 7 limit_VAR)))
(assert (< 0 (+ limit_VAR 1)))
(assert (< 1 (+ limit_VAR 1)))
(assert (< 2 (+ limit_VAR 1)))
(assert (not (< 3 (+ limit_VAR 1))))
(check-sat)
(get-value (limit_VAR))
